c "917040.clq"
p edge 140 544
e 1 5
e 1 6
e 1 8
e 1 9
e 1 11
e 1 16
e 1 20
e 1 33
e 1 34
e 1 35
e 1 39
e 1 42
e 1 59
e 1 64
e 1 69
e 1 71
e 1 72
e 1 83
e 1 92
e 1 94
e 1 106
e 1 137
e 2 5
e 2 6
e 2 7
e 2 11
e 2 21
e 2 22
e 2 58
e 2 61
e 2 89
e 3 5
e 3 14
e 3 73
e 4 5
e 4 6
e 4 7
e 4 8
e 4 9
e 4 10
e 4 14
e 4 17
e 4 22
e 4 23
e 4 25
e 4 27
e 4 29
e 4 31
e 4 36
e 4 37
e 4 44
e 4 47
e 4 54
e 4 56
e 4 62
e 4 74
e 4 79
e 4 86
e 4 87
e 4 92
e 4 97
e 4 98
e 4 100
e 4 103
e 4 110
e 4 140
e 5 6
e 5 7
e 5 10
e 5 12
e 5 13
e 5 14
e 5 17
e 5 23
e 5 24
e 5 25
e 5 29
e 5 33
e 5 34
e 5 44
e 5 45
e 5 49
e 5 50
e 5 53
e 5 58
e 5 66
e 5 68
e 5 82
e 5 87
e 5 90
e 5 101
e 5 111
e 5 112
e 5 116
e 5 118
e 5 125
e 5 134
e 5 139
e 6 7
e 6 8
e 6 9
e 6 10
e 6 12
e 6 13
e 6 15
e 6 17
e 6 18
e 6 19
e 6 22
e 6 27
e 6 28
e 6 30
e 6 41
e 6 49
e 6 59
e 6 68
e 6 69
e 6 73
e 6 85
e 6 91
e 6 99
e 6 114
e 6 116
e 6 119
e 6 127
e 6 135
e 6 139
e 7 8
e 7 11
e 7 28
e 7 55
e 7 57
e 7 67
e 8 9
e 8 10
e 8 11
e 8 12
e 8 16
e 8 19
e 8 21
e 8 27
e 8 32
e 8 33
e 8 36
e 8 38
e 8 41
e 8 43
e 8 44
e 8 52
e 8 64
e 8 65
e 8 74
e 8 77
e 8 80
e 8 85
e 8 88
e 8 95
e 8 103
e 8 105
e 8 112
e 8 115
e 8 126
e 8 133
e 8 137
e 8 138
e 9 16
e 9 51
e 9 72
e 9 75
e 10 13
e 10 15
e 10 17
e 10 18
e 10 50
e 10 53
e 10 57
e 11 12
e 11 13
e 11 14
e 11 15
e 11 19
e 11 20
e 11 25
e 11 28
e 11 31
e 11 35
e 11 46
e 11 52
e 11 58
e 11 60
e 11 65
e 11 67
e 11 77
e 11 78
e 11 96
e 11 102
e 11 118
e 11 126
e 11 133
e 11 139
e 12 16
e 12 18
e 12 31
e 12 32
e 12 34
e 12 40
e 12 50
e 12 51
e 12 52
e 12 61
e 12 63
e 12 66
e 12 69
e 12 104
e 12 106
e 12 128
e 12 131
e 13 19
e 13 24
e 13 26
e 13 28
e 13 34
e 13 46
e 13 56
e 13 60
e 13 64
e 13 65
e 13 89
e 13 96
e 13 140
e 14 15
e 14 38
e 14 79
e 14 87
e 15 18
e 15 24
e 15 26
e 15 65
e 15 73
e 15 81
e 15 105
e 16 23
e 16 110
e 17 23
e 17 29
e 17 30
e 17 39
e 17 72
e 17 79
e 17 84
e 18 20
e 18 21
e 18 24
e 18 25
e 18 31
e 18 43
e 18 47
e 18 56
e 18 61
e 18 70
e 18 77
e 18 93
e 18 97
e 18 107
e 18 115
e 19 20
e 19 21
e 19 22
e 19 32
e 19 48
e 19 72
e 19 82
e 19 83
e 19 86
e 19 95
e 19 97
e 19 108
e 19 115
e 19 130
e 20 26
e 20 27
e 20 36
e 20 37
e 20 40
e 20 45
e 20 53
e 20 57
e 20 62
e 20 68
e 20 84
e 20 95
e 20 118
e 20 122
e 20 136
e 20 140
e 21 32
e 21 63
e 21 66
e 21 70
e 21 81
e 21 89
e 21 107
e 21 118
e 21 132
e 21 135
e 22 35
e 22 69
e 22 82
e 22 97
e 22 99
e 22 112
e 22 135
e 23 26
e 23 30
e 23 38
e 23 40
e 23 41
e 23 42
e 23 51
e 23 63
e 23 76
e 23 86
e 23 106
e 23 117
e 23 127
e 23 132
e 23 135
e 24 56
e 26 33
e 26 35
e 26 37
e 26 51
e 26 52
e 26 86
e 26 114
e 26 124
e 27 42
e 27 48
e 28 29
e 28 30
e 28 54
e 28 76
e 28 100
e 28 102
e 28 109
e 28 117
e 28 128
e 29 42
e 29 107
e 30 36
e 30 45
e 30 46
e 30 48
e 30 95
e 30 99
e 30 108
e 30 109
e 30 111
e 30 130
e 31 54
e 31 55
e 32 54
e 32 55
e 32 107
e 32 121
e 32 122
e 33 38
e 33 41
e 33 108
e 33 136
e 34 43
e 34 78
e 34 82
e 34 121
e 35 37
e 35 39
e 35 58
e 35 68
e 35 93
e 35 100
e 35 120
e 36 78
e 36 80
e 37 39
e 37 40
e 37 75
e 37 105
e 37 120
e 37 124
e 37 131
e 38 44
e 38 45
e 38 88
e 38 105
e 38 106
e 38 117
e 39 101
e 40 43
e 40 47
e 40 53
e 40 124
e 40 125
e 42 75
e 42 94
e 43 46
e 44 50
e 44 62
e 44 88
e 45 47
e 45 55
e 46 48
e 46 49
e 46 84
e 46 124
e 47 49
e 47 94
e 47 117
e 48 59
e 48 84
e 48 89
e 48 101
e 48 120
e 48 129
e 49 116
e 50 57
e 50 60
e 50 67
e 50 71
e 50 73
e 50 85
e 50 103
e 50 110
e 51 90
e 51 92
e 51 94
e 51 98
e 51 122
e 51 125
e 51 132
e 52 59
e 52 62
e 52 64
e 52 81
e 52 128
e 54 60
e 54 71
e 54 76
e 54 90
e 54 111
e 54 122
e 55 91
e 55 98
e 55 102
e 56 74
e 56 114
e 56 129
e 57 61
e 57 63
e 57 76
e 57 90
e 57 100
e 57 127
e 57 133
e 58 71
e 58 104
e 58 129
e 58 138
e 59 67
e 59 70
e 59 75
e 59 85
e 59 109
e 59 110
e 60 66
e 60 91
e 60 121
e 62 120
e 63 101
e 63 102
e 63 138
e 64 80
e 64 93
e 64 113
e 64 130
e 65 78
e 65 104
e 66 70
e 66 81
e 66 87
e 66 111
e 68 77
e 68 80
e 69 74
e 69 113
e 70 125
e 71 136
e 72 119
e 72 121
e 73 83
e 73 88
e 74 83
e 74 109
e 75 79
e 75 103
e 75 134
e 76 137
e 76 140
e 77 92
e 77 114
e 77 131
e 79 137
e 80 115
e 81 96
e 82 104
e 82 129
e 83 99
e 83 108
e 83 130
e 84 93
e 85 119
e 86 91
e 87 126
e 89 98
e 89 113
e 90 123
e 92 123
e 95 96
e 95 123
e 96 134
e 98 132
e 99 131
e 99 136
e 103 113
e 103 119
e 103 133
e 110 112
e 110 116
e 118 127
e 119 123
e 122 126
e 124 128
e 124 139
e 132 134
e 136 138
